# Objective value = 3
S 3
C1,2 0
C1,5 0
C1,17 0
C2,3 0
C2,6 0
C2,18 0
C3,4 0
C3,7 0
C3,19 0
C4,8 0
C4,20 0
C5,6 0
C5,9 0
C5,21 0
C6,7 0
C6,10 0
C6,22 0
C7,8 0
C7,11 0
C7,23 0
C8,12 0
C8,24 0
C9,10 0
C9,13 0
C9,25 0
C10,11 0
C10,14 0
C10,26 0
C11,12 0
C11,15 0
C11,27 0
C12,16 0
C12,28 0
C13,14 0
C13,29 0
C14,15 0
C14,30 0
C15,16 0
C15,31 0
C16,32 0
C17,18 0
C17,21 0
C17,33 0
C18,19 0
C18,22 0
C18,34 0
C19,20 0
C19,23 0
C19,35 0
C20,24 0
C20,36 0
C21,22 0
C21,25 0
C21,37 0
C22,23 0
C22,26 1
C22,38 1
C23,24 0
C23,27 0
C23,39 0
C24,28 0
C24,40 0
C25,26 0
C25,29 0
C25,41 0
C26,27 0
C26,30 0
C26,42 1
C27,28 0
C27,31 0
C27,43 0
C28,32 0
C28,44 0
C29,30 0
C29,45 0
C30,31 0
C30,46 0
C31,32 0
C31,47 0
C32,48 0
C33,34 0
C33,37 0
C33,49 0
C34,35 0
C34,38 0
C34,50 0
C35,36 0
C35,39 0
C35,51 0
C36,40 0
C36,52 0
C37,38 0
C37,41 0
C37,53 0
C38,39 1
C38,42 1
C38,54 0
C39,40 0
C39,43 0
C39,55 0
C40,44 0
C40,56 0
C41,42 0
C41,45 0
C41,57 0
C42,43 0
C42,46 0
C42,58 0
C43,44 0
C43,47 0
C43,59 0
C44,48 0
C44,60 0
C45,46 0
C45,61 0
C46,47 0
C46,62 0
C47,48 0
C47,63 0
C48,64 0
C49,50 0
C49,53 0
C50,51 0
C50,54 0
C51,52 0
C51,55 0
C52,56 0
C53,54 0
C53,57 0
C54,55 0
C54,58 0
C55,56 0
C55,59 0
C56,60 0
C57,58 0
C57,61 0
C58,59 0
C58,62 0
C59,60 0
C59,63 0
C60,64 0
C61,62 0
C62,63 0
C63,64 0
Offset 2
X1,1 0
X1,2 0
X1,3 0
X1,4 0
X1,5 0
X1,6 0
X1,7 0
X1,8 0
X1,9 0
X1,10 0
X1,11 0
X1,12 0
X1,13 0
X1,14 0
X1,15 0
X1,16 0
X1,17 0
X1,18 0
X1,19 0
X1,20 0
X1,21 0
X1,22 0
X1,23 0
X1,24 0
X1,25 0
X1,26 1
X1,27 0
X1,28 0
X1,29 0
X1,30 0
X1,31 0
X1,32 0
X1,33 0
X1,34 0
X1,35 0
X1,36 0
X1,37 0
X1,38 0
X1,39 0
X1,40 0
X1,41 0
X1,42 0
X1,43 0
X1,44 0
X1,45 0
X1,46 0
X1,47 0
X1,48 0
X1,49 0
X1,50 0
X1,51 0
X1,52 0
X1,53 0
X1,54 0
X1,55 0
X1,56 0
X1,57 0
X1,58 0
X1,59 0
X1,60 0
X1,61 0
X1,62 0
X1,63 0
X1,64 0
X2,1 0
X2,2 0
X2,3 0
X2,4 0
X2,5 0
X2,6 0
X2,7 0
X2,8 0
X2,9 0
X2,10 0
X2,11 0
X2,12 0
X2,13 0
X2,14 0
X2,15 0
X2,16 0
X2,17 0
X2,18 0
X2,19 0
X2,20 0
X2,21 0
X2,22 0
X2,23 0
X2,24 0
X2,25 0
X2,26 0
X2,27 0
X2,28 0
X2,29 0
X2,30 0
X2,31 0
X2,32 0
X2,33 0
X2,34 0
X2,35 0
X2,36 0
X2,37 0
X2,38 0
X2,39 0
X2,40 0
X2,41 0
X2,42 1
X2,43 0
X2,44 0
X2,45 0
X2,46 0
X2,47 0
X2,48 0
X2,49 0
X2,50 0
X2,51 0
X2,52 0
X2,53 0
X2,54 0
X2,55 0
X2,56 0
X2,57 0
X2,58 0
X2,59 0
X2,60 0
X2,61 0
X2,62 0
X2,63 0
X2,64 0
X3,1 0
X3,2 0
X3,3 0
X3,4 0
X3,5 0
X3,6 0
X3,7 0
X3,8 0
X3,9 0
X3,10 0
X3,11 0
X3,12 0
X3,13 0
X3,14 0
X3,15 0
X3,16 0
X3,17 0
X3,18 0
X3,19 0
X3,20 0
X3,21 0
X3,22 0
X3,23 0
X3,24 0
X3,25 0
X3,26 0
X3,27 0
X3,28 0
X3,29 0
X3,30 0
X3,31 0
X3,32 0
X3,33 0
X3,34 0
X3,35 0
X3,36 0
X3,37 0
X3,38 0
X3,39 0
X3,40 0
X3,41 1
X3,42 0
X3,43 0
X3,44 0
X3,45 0
X3,46 0
X3,47 0
X3,48 0
X3,49 0
X3,50 0
X3,51 0
X3,52 0
X3,53 0
X3,54 0
X3,55 0
X3,56 0
X3,57 0
X3,58 0
X3,59 0
X3,60 0
X3,61 0
X3,62 0
X3,63 0
X3,64 0
X4,1 0
X4,2 0
X4,3 0
X4,4 0
X4,5 0
X4,6 0
X4,7 0
X4,8 0
X4,9 0
X4,10 0
X4,11 0
X4,12 0
X4,13 0
X4,14 0
X4,15 0
X4,16 0
X4,17 0
X4,18 0
X4,19 0
X4,20 0
X4,21 0
X4,22 0
X4,23 0
X4,24 0
X4,25 0
X4,26 0
X4,27 0
X4,28 0
X4,29 0
X4,30 0
X4,31 0
X4,32 0
X4,33 0
X4,34 0
X4,35 0
X4,36 0
X4,37 1
X4,38 0
X4,39 0
X4,40 0
X4,41 0
X4,42 0
X4,43 0
X4,44 0
X4,45 0
X4,46 0
X4,47 0
X4,48 0
X4,49 0
X4,50 0
X4,51 0
X4,52 0
X4,53 0
X4,54 0
X4,55 0
X4,56 0
X4,57 0
X4,58 0
X4,59 0
X4,60 0
X4,61 0
X4,62 0
X4,63 0
X4,64 0
X5,1 0
X5,2 0
X5,3 0
X5,4 0
X5,5 0
X5,6 0
X5,7 0
X5,8 0
X5,9 0
X5,10 0
X5,11 0
X5,12 0
X5,13 0
X5,14 0
X5,15 0
X5,16 0
X5,17 0
X5,18 0
X5,19 0
X5,20 0
X5,21 1
X5,22 0
X5,23 0
X5,24 0
X5,25 0
X5,26 0
X5,27 0
X5,28 0
X5,29 0
X5,30 0
X5,31 0
X5,32 0
X5,33 0
X5,34 0
X5,35 0
X5,36 0
X5,37 0
X5,38 0
X5,39 0
X5,40 0
X5,41 0
X5,42 0
X5,43 0
X5,44 0
X5,45 0
X5,46 0
X5,47 0
X5,48 0
X5,49 0
X5,50 0
X5,51 0
X5,52 0
X5,53 0
X5,54 0
X5,55 0
X5,56 0
X5,57 0
X5,58 0
X5,59 0
X5,60 0
X5,61 0
X5,62 0
X5,63 0
X5,64 0
X6,1 0
X6,2 0
X6,3 0
X6,4 0
X6,5 0
X6,6 0
X6,7 0
X6,8 0
X6,9 0
X6,10 0
X6,11 0
X6,12 0
X6,13 0
X6,14 0
X6,15 0
X6,16 0
X6,17 0
X6,18 0
X6,19 0
X6,20 0
X6,21 0
X6,22 1
X6,23 0
X6,24 0
X6,25 0
X6,26 0
X6,27 0
X6,28 0
X6,29 0
X6,30 0
X6,31 0
X6,32 0
X6,33 0
X6,34 0
X6,35 0
X6,36 0
X6,37 0
X6,38 0
X6,39 0
X6,40 0
X6,41 0
X6,42 0
X6,43 0
X6,44 0
X6,45 0
X6,46 0
X6,47 0
X6,48 0
X6,49 0
X6,50 0
X6,51 0
X6,52 0
X6,53 0
X6,54 0
X6,55 0
X6,56 0
X6,57 0
X6,58 0
X6,59 0
X6,60 0
X6,61 0
X6,62 0
X6,63 0
X6,64 0
X7,1 0
X7,2 0
X7,3 0
X7,4 0
X7,5 0
X7,6 0
X7,7 0
X7,8 0
X7,9 0
X7,10 0
X7,11 0
X7,12 0
X7,13 0
X7,14 0
X7,15 0
X7,16 0
X7,17 0
X7,18 0
X7,19 0
X7,20 0
X7,21 0
X7,22 0
X7,23 1
X7,24 0
X7,25 0
X7,26 0
X7,27 0
X7,28 0
X7,29 0
X7,30 0
X7,31 0
X7,32 0
X7,33 0
X7,34 0
X7,35 0
X7,36 0
X7,37 0
X7,38 0
X7,39 0
X7,40 0
X7,41 0
X7,42 0
X7,43 0
X7,44 0
X7,45 0
X7,46 0
X7,47 0
X7,48 0
X7,49 0
X7,50 0
X7,51 0
X7,52 0
X7,53 0
X7,54 0
X7,55 0
X7,56 0
X7,57 0
X7,58 0
X7,59 0
X7,60 0
X7,61 0
X7,62 0
X7,63 0
X7,64 0
X8,1 0
X8,2 0
X8,3 0
X8,4 0
X8,5 0
X8,6 0
X8,7 0
X8,8 0
X8,9 0
X8,10 0
X8,11 0
X8,12 0
X8,13 0
X8,14 0
X8,15 0
X8,16 0
X8,17 0
X8,18 0
X8,19 0
X8,20 0
X8,21 0
X8,22 0
X8,23 0
X8,24 0
X8,25 0
X8,26 0
X8,27 0
X8,28 0
X8,29 0
X8,30 0
X8,31 0
X8,32 0
X8,33 0
X8,34 0
X8,35 0
X8,36 0
X8,37 0
X8,38 0
X8,39 1
X8,40 0
X8,41 0
X8,42 0
X8,43 0
X8,44 0
X8,45 0
X8,46 0
X8,47 0
X8,48 0
X8,49 0
X8,50 0
X8,51 0
X8,52 0
X8,53 0
X8,54 0
X8,55 0
X8,56 0
X8,57 0
X8,58 0
X8,59 0
X8,60 0
X8,61 0
X8,62 0
X8,63 0
X8,64 0
X9,1 0
X9,2 0
X9,3 0
X9,4 0
X9,5 0
X9,6 0
X9,7 0
X9,8 0
X9,9 0
X9,10 0
X9,11 0
X9,12 0
X9,13 0
X9,14 0
X9,15 0
X9,16 0
X9,17 0
X9,18 0
X9,19 0
X9,20 0
X9,21 0
X9,22 0
X9,23 0
X9,24 0
X9,25 0
X9,26 0
X9,27 0
X9,28 0
X9,29 0
X9,30 0
X9,31 0
X9,32 0
X9,33 0
X9,34 0
X9,35 0
X9,36 0
X9,37 0
X9,38 1
X9,39 0
X9,40 0
X9,41 0
X9,42 0
X9,43 0
X9,44 0
X9,45 0
X9,46 0
X9,47 0
X9,48 0
X9,49 0
X9,50 0
X9,51 0
X9,52 0
X9,53 0
X9,54 0
X9,55 0
X9,56 0
X9,57 0
X9,58 0
X9,59 0
X9,60 0
X9,61 0
X9,62 0
X9,63 0
X9,64 0
I1 0
I2 0
I3 0
I4 0
I5 0
I6 0
I7 0
I8 0
I9 0
I10 0
I11 0
I12 0
I13 0
I14 0
I15 0
I16 0
I17 0
I18 0
I19 0
I20 0
I21 0
I22 1
I23 0
I24 0
I25 0
I26 1
I27 0
I28 0
I29 0
I30 0
I31 0
I32 0
I33 0
I34 0
I35 0
I36 0
I37 0
I38 1
I39 1
I40 0
I41 0
I42 1
I43 0
I44 0
I45 0
I46 0
I47 0
I48 0
I49 0
I50 0
I51 0
I52 0
I53 0
I54 0
I55 0
I56 0
I57 0
I58 0
I59 0
I60 0
I61 0
I62 0
I63 0
I64 0
